c nIsolatedPIs 0
c maxPI 32
p cnf 188 469
c gate 33 -7 23 0
-7 -33 0
23 -33 0
7 -23 33 0
c gate 34 6 -22 0
6 -34 0
-22 -34 0
-6 22 34 0
c gate 35 7 -23 0
7 -35 0
-23 -35 0
-7 23 35 0
c gate 36 -34 -35 0
-34 -36 0
-35 -36 0
34 35 36 0
c gate 37 -2 18 0
-2 -37 0
18 -37 0
2 -18 37 0
c gate 38 -1 17 0
-1 -38 0
17 -38 0
1 -17 38 0
c gate 39 -37 -38 0
-37 -39 0
-38 -39 0
37 38 39 0
c gate 40 2 -18 0
2 -40 0
-18 -40 0
-2 18 40 0
c gate 41 3 -19 0
3 -41 0
-19 -41 0
-3 19 41 0
c gate 42 -40 -41 0
-40 -42 0
-41 -42 0
40 41 42 0
c gate 43 -39 42 0
-39 -43 0
42 -43 0
39 -42 43 0
c gate 44 -4 20 0
-4 -44 0
20 -44 0
4 -20 44 0
c gate 45 -3 19 0
-3 -45 0
19 -45 0
3 -19 45 0
c gate 46 -44 -45 0
-44 -46 0
-45 -46 0
44 45 46 0
c gate 47 -43 46 0
-43 -47 0
46 -47 0
43 -46 47 0
c gate 48 5 -21 0
5 -48 0
-21 -48 0
-5 21 48 0
c gate 49 4 -20 0
4 -49 0
-20 -49 0
-4 20 49 0
c gate 50 -48 -49 0
-48 -50 0
-49 -50 0
48 49 50 0
c gate 51 -47 50 0
-47 -51 0
50 -51 0
47 -50 51 0
c gate 52 -6 22 0
-6 -52 0
22 -52 0
6 -22 52 0
c gate 53 -34 -52 0
-34 -53 0
-52 -53 0
34 52 53 0
c gate 54 -5 21 0
-5 -54 0
21 -54 0
5 -21 54 0
c gate 55 53 -54 0
53 -55 0
-54 -55 0
-53 54 55 0
c gate 56 -51 55 0
-51 -56 0
55 -56 0
51 -55 56 0
c gate 57 36 -56 0
36 -57 0
-56 -57 0
-36 56 57 0
c gate 58 -33 -57 0
-33 -58 0
-57 -58 0
33 57 58 0
c gate 59 8 24 0
8 -59 0
24 -59 0
-8 -24 59 0
c gate 60 -8 -24 0
-8 -60 0
-24 -60 0
8 24 60 0
c gate 61 -59 -60 0
-59 -61 0
-60 -61 0
59 60 61 0
c gate 62 36 61 0
36 -62 0
61 -62 0
-36 -61 62 0
c gate 63 58 62 0
58 -63 0
62 -63 0
-58 -62 63 0
c gate 64 58 -61 0
58 -64 0
-61 -64 0
-58 61 64 0
c gate 65 -63 -64 0
-63 -65 0
-64 -65 0
63 64 65 0
c gate 66 -33 -35 0
-33 -66 0
-35 -66 0
33 35 66 0
c gate 67 56 -66 0
56 -67 0
-66 -67 0
-56 66 67 0
c gate 68 2 18 0
2 -68 0
18 -68 0
-2 -18 68 0
c gate 69 1 17 0
1 -69 0
17 -69 0
-1 -17 69 0
c gate 70 -68 -69 0
-68 -70 0
-69 -70 0
68 69 70 0
c gate 71 -2 -18 0
-2 -71 0
-18 -71 0
2 18 71 0
c gate 72 -3 -19 0
-3 -72 0
-19 -72 0
3 19 72 0
c gate 73 -71 -72 0
-71 -73 0
-72 -73 0
71 72 73 0
c gate 74 -70 73 0
-70 -74 0
73 -74 0
70 -73 74 0
c gate 75 4 20 0
4 -75 0
20 -75 0
-4 -20 75 0
c gate 76 3 19 0
3 -76 0
19 -76 0
-3 -19 76 0
c gate 77 -75 -76 0
-75 -77 0
-76 -77 0
75 76 77 0
c gate 78 -74 77 0
-74 -78 0
77 -78 0
74 -77 78 0
c gate 79 -5 -21 0
-5 -79 0
-21 -79 0
5 21 79 0
c gate 80 -4 -20 0
-4 -80 0
-20 -80 0
4 20 80 0
c gate 81 -79 -80 0
-79 -81 0
-80 -81 0
79 80 81 0
c gate 82 -78 81 0
-78 -82 0
81 -82 0
78 -81 82 0
c gate 83 5 21 0
5 -83 0
21 -83 0
-5 -21 83 0
c gate 84 -53 -83 0
-53 -84 0
-83 -84 0
53 83 84 0
c gate 85 -82 84 0
-82 -85 0
84 -85 0
82 -84 85 0
c gate 86 -6 -22 0
-6 -86 0
-22 -86 0
6 22 86 0
c gate 87 -85 -86 0
-85 -87 0
-86 -87 0
85 86 87 0
c gate 88 -66 -87 0
-66 -88 0
-87 -88 0
66 87 88 0
c gate 89 61 88 0
61 -89 0
88 -89 0
-61 -88 89 0
c gate 90 -11 -27 0
-11 -90 0
-27 -90 0
11 27 90 0
c gate 91 11 27 0
11 -91 0
27 -91 0
-11 -27 91 0
c gate 92 -10 -26 0
-10 -92 0
-26 -92 0
10 26 92 0
c gate 93 -7 -23 0
-7 -93 0
-23 -93 0
7 23 93 0
c gate 94 -59 93 0
-59 -94 0
93 -94 0
59 -93 94 0
c gate 95 -9 -25 0
-9 -95 0
-25 -95 0
9 25 95 0
c gate 96 -60 -95 0
-60 -96 0
-95 -96 0
60 95 96 0
c gate 97 -94 96 0
-94 -97 0
96 -97 0
94 -96 97 0
c gate 98 -89 97 0
-89 -98 0
97 -98 0
89 -97 98 0
c gate 99 9 25 0
9 -99 0
25 -99 0
-9 -25 99 0
c gate 100 10 26 0
10 -100 0
26 -100 0
-10 -26 100 0
c gate 101 -99 -100 0
-99 -101 0
-100 -101 0
99 100 101 0
c gate 102 -98 101 0
-98 -102 0
101 -102 0
98 -101 102 0
c gate 103 -92 -102 0
-92 -103 0
-102 -103 0
92 102 103 0
c gate 104 -91 -103 0
-91 -104 0
-103 -104 0
91 103 104 0
c gate 105 -90 -104 0
-90 -105 0
-104 -105 0
90 104 105 0
c gate 106 -97 101 0
-97 -106 0
101 -106 0
97 -101 106 0
c gate 107 12 28 0
12 -107 0
28 -107 0
-12 -28 107 0
c gate 108 -12 -28 0
-12 -108 0
-28 -108 0
12 28 108 0
c gate 109 -107 -108 0
-107 -109 0
-108 -109 0
107 108 109 0
c gate 110 -90 -92 0
-90 -110 0
-92 -110 0
90 92 110 0
c gate 111 109 110 0
109 -111 0
110 -111 0
-109 -110 111 0
c gate 112 -106 111 0
-106 -112 0
111 -112 0
106 -111 112 0
c gate 113 -105 112 0
-105 -113 0
112 -113 0
105 -112 113 0
c gate 114 89 113 0
89 -114 0
113 -114 0
-89 -113 114 0
c gate 115 105 109 0
105 -115 0
109 -115 0
-105 -109 115 0
c gate 116 -13 -29 0
-13 -116 0
-29 -116 0
13 29 116 0
c gate 117 -108 -116 0
-108 -117 0
-116 -117 0
108 116 117 0
c gate 118 105 117 0
105 -118 0
117 -118 0
-105 -117 118 0
c gate 119 13 29 0
13 -119 0
29 -119 0
-13 -29 119 0
c gate 120 -107 -119 0
-107 -120 0
-119 -120 0
107 119 120 0
c gate 121 -116 -120 0
-116 -121 0
-120 -121 0
116 120 121 0
c gate 122 15 -31 0
15 -122 0
-31 -122 0
-15 31 122 0
c gate 123 -15 31 0
-15 -123 0
31 -123 0
15 -31 123 0
c gate 124 -122 -123 0
-122 -124 0
-123 -124 0
122 123 124 0
c gate 125 -16 -32 0
-16 -125 0
-32 -125 0
16 32 125 0
c gate 126 16 32 0
16 -126 0
32 -126 0
-16 -32 126 0
c gate 127 -125 -126 0
-125 -127 0
-126 -127 0
125 126 127 0
c gate 128 -14 -30 0
-14 -128 0
-30 -128 0
14 30 128 0
c gate 129 14 30 0
14 -129 0
30 -129 0
-14 -30 129 0
c gate 130 -128 -129 0
-128 -130 0
-129 -130 0
128 129 130 0
c gate 131 127 130 0
127 -131 0
130 -131 0
-127 -130 131 0
c gate 132 -124 131 0
-124 -132 0
131 -132 0
124 -131 132 0
c gate 133 -121 132 0
-121 -133 0
132 -133 0
121 -132 133 0
c gate 134 118 133 0
118 -134 0
133 -134 0
-118 -133 134 0
c gate 135 115 -134 0
115 -135 0
-134 -135 0
-115 134 135 0
c gate 136 -114 -135 0
-114 -136 0
-135 -136 0
114 135 136 0
c gate 137 -56 -136 0
-56 -137 0
-136 -137 0
56 136 137 0
c gate 138 -67 -137 0
-67 -138 0
-137 -138 0
67 137 138 0
c gate 139 -64 -138 0
-64 -139 0
-138 -139 0
64 138 139 0
c gate 140 -95 -99 0
-95 -140 0
-99 -140 0
95 99 140 0
c gate 141 -92 -100 0
-92 -141 0
-100 -141 0
92 100 141 0
c gate 142 -140 -141 0
-140 -142 0
-141 -142 0
140 141 142 0
c gate 143 64 -142 0
64 -143 0
-142 -143 0
-64 142 143 0
c gate 144 -63 -143 0
-63 -144 0
-143 -144 0
63 143 144 0
c gate 145 -139 144 0
-139 -145 0
144 -145 0
139 -144 145 0
c gate 146 -9 25 0
-9 -146 0
25 -146 0
9 -25 146 0
c gate 147 8 -24 0
8 -147 0
-24 -147 0
-8 24 147 0
c gate 148 -140 -147 0
-140 -148 0
-147 -148 0
140 147 148 0
c gate 149 -64 148 0
-64 -149 0
148 -149 0
64 -148 149 0
c gate 150 -146 -149 0
-146 -150 0
-149 -150 0
146 149 150 0
c gate 151 -90 -91 0
-90 -151 0
-91 -151 0
90 91 151 0
c gate 152 -141 151 0
-141 -152 0
151 -152 0
141 -151 152 0
c gate 153 148 152 0
148 -153 0
152 -153 0
-148 -152 153 0
c gate 154 150 153 0
150 -154 0
153 -154 0
-150 -153 154 0
c gate 155 145 -154 0
145 -155 0
-154 -155 0
-145 154 155 0
c gate 156 -10 26 0
-10 -156 0
26 -156 0
10 -26 156 0
c gate 157 150 -156 0
150 -157 0
-156 -157 0
-150 156 157 0
c gate 158 10 -26 0
10 -158 0
-26 -158 0
-10 26 158 0
c gate 159 -151 -158 0
-151 -159 0
-158 -159 0
151 158 159 0
c gate 160 -157 159 0
-157 -160 0
159 -160 0
157 -159 160 0
c gate 161 -155 -160 0
-155 -161 0
-160 -161 0
155 160 161 0
c gate 162 -109 -127 0
-109 -162 0
-127 -162 0
109 127 162 0
c gate 163 -116 -119 0
-116 -163 0
-119 -163 0
116 119 163 0
c gate 164 124 -130 0
124 -164 0
-130 -164 0
-124 130 164 0
c gate 165 -163 164 0
-163 -165 0
164 -165 0
163 -164 165 0
c gate 166 162 165 0
162 -166 0
165 -166 0
-162 -165 166 0
c gate 167 160 166 0
160 -167 0
166 -167 0
-160 -166 167 0
c gate 168 -161 -167 0
-161 -168 0
-167 -168 0
161 167 168 0
c gate 169 -138 168 0
-138 -169 0
168 -169 0
138 -168 169 0
c gate 170 -136 168 0
-136 -170 0
168 -170 0
136 -168 170 0
c gate 171 -85 -88 0
-85 -171 0
-88 -171 0
85 88 171 0
c gate 172 -113 -171 0
-113 -172 0
-171 -172 0
113 171 172 0
c gate 173 -115 -172 0
-115 -173 0
-172 -173 0
115 172 173 0
c gate 174 -168 -173 0
-168 -174 0
-173 -174 0
168 173 174 0
c gate 175 -135 174 0
-135 -175 0
174 -175 0
135 -174 175 0
c gate 176 -170 -175 0
-170 -176 0
-175 -176 0
170 175 176 0
c gate 177 -56 176 0
-56 -177 0
176 -177 0
56 -176 177 0
c gate 178 -67 -168 0
-67 -178 0
-168 -178 0
67 168 178 0
c gate 179 -177 178 0
-177 -179 0
178 -179 0
177 -178 179 0
c gate 180 -169 -179 0
-169 -180 0
-179 -180 0
169 179 180 0
c gate 181 65 180 0
65 -181 0
180 -181 0
-65 -180 181 0
c gate 182 -63 -168 0
-63 -182 0
-168 -182 0
63 168 182 0
c gate 183 -181 182 0
-181 -183 0
182 -183 0
181 -182 183 0
c gate 184 -143 -154 0
-143 -184 0
-154 -184 0
143 154 184 0
c gate 185 183 184 0
183 -185 0
184 -185 0
-183 -184 185 0
c gate 186 -145 168 0
-145 -186 0
168 -186 0
145 -168 186 0
c gate 187 160 -186 0
160 -187 0
-186 -187 0
-160 186 187 0
c gate 188 -185 187 0
-185 -188 0
187 -188 0
185 -187 188 0
c PO
188 0
